p cnf 12 50 
5 -6 -7 0
3 -9 2 0
-1 -8 2 0
1 -2 -11 0
-8 3 7 0
-8 3 -9 0
5 -9 4 0
1 -4 -10 0
-2 5 -6 0
9 7 -3 0
-11 -6 4 0
5 -11 4 0
11 10 1 0
2 -8 -9 0
-4 -11 5 0
4 11 -1 0
-10 -11 -3 0
-9 -5 -2 0
8 -3 -4 0
-12 5 -9 0
-3 -5 4 0
-1 -7 8 0
-10 5 12 0
3 -12 -2 0
2 -9 11 0
12 9 6 0
-6 -12 -5 0
6 -1 -10 0
-8 9 -10 0
-3 7 4 0
-2 12 -3 0
-11 -8 -1 0
2 7 -5 0
-1 8 -9 0
7 -11 3 0
2 1 11 0
-12 -6 7 0
-9 3 -6 0
1 11 -3 0
11 -7 3 0
-10 -2 -12 0
-11 8 4 0
-10 -12 -7 0
2 -7 11 0
-3 8 -11 0
9 -10 -4 0
-10 8 6 0
8 10 3 0
-9 2 4 0
-5 -7 -2 0
